WARNING: for repeatability, setting FPU to use double precision
============================[ Problem Statistics ]=============================
|                                                                             |
|  Number of variables:            50                                         |
|  Number of clauses:             218                                         |
|  Parse time:                   0.00 s                                       |
|                                                                             |
============================[ Search Statistics ]==============================
| Conflicts |          ORIGINAL         |          LEARNT          | Progress |
|           |    Vars  Clauses Literals |    Limit  Clauses Lit/Cl |          |
===============================================================================
===============================================================================
restarts              : 1
conflicts             : 18             (12950 /sec)
decisions             : 32             (0.00 % random) (23022 /sec)
propagations          : 269            (193525 /sec)
conflict literals     : 79             (1.25 % deleted)
Memory used           : 20.00 MB
CPU time              : 0.00139 s

SATISFIABLE
